
 102   30
  10   10   10   10   10   10   10   10   10   10   10   10   10   10   10   10   10   10   10   10   10   10   10   10   10   10   10   10   10   10

   0   0   0   0   0   0   0   0   0   0   0   0   0   0   0   0   0   0   0   0   0   0   0   0   0   0   0   0   0   0   0  22 2 3 4 5 6 7 9 10 11 12 13 14 16 19 21 24 25 26 27 33 36 44 
   4   0   0   0   0   0   1   0   0   0   0   0   0   0   0   0   0   0   0   0   0   0   0   0   0   0   1   0   2   0   0  16 67 66 48 46 45 43 38 37 35 31 30 29 20 18 15 8 
   6   0   1   4   0   1   5   0   0   0   1   0   0   0   2   0   0   0   0   0   0   0   0   0   0   0   0   0   0   0   0  20 101 98 66 63 62 61 55 54 52 51 50 49 48 45 41 37 35 32 31 28 
   4   0   0   0   0   0   0   0   0   0   0   0   0   0   0   0   0   0   0   0   0   1   0   0   0   0   0   0   0   1   1  18 101 100 98 94 73 70 66 65 62 60 58 56 51 48 46 42 37 17 
   7   0   0   7   0   0   0   0   0   1   0   0   0   0   0   0   0   0   0   0   0   0   0   0   0   0   0   1   0   0   0  22 98 73 72 67 66 65 63 62 61 60 56 54 52 51 50 49 46 42 41 40 39 32 
   6   0   0   0   0   0   0   1   0   0   0   0   0   0   0   0   0   0   0   0   0   0   0   0   0   0   0   0   0   0   0  11 101 97 55 48 45 42 34 32 29 20 15 
   5   1   0   0   0   0   0   0   0   0   0   0   0   0   0   0   0   0   0   0   0   0   1   0   0   0   0   0   0   0   0  21 100 99 98 73 72 65 64 61 60 55 54 50 49 48 47 46 45 42 41 39 38 
   8   0   0   0   0   0   0   0   0   0   7   0   0   1   0   0   0   0   0   0   2   0   0   0   0   0   0   0   7   0   0  13 100 99 73 72 65 64 61 55 54 50 41 23 22 
   3   0   0   4   0   0   0   0   0   0   0   0   0   0   0   0   0   0   0   0   0   6   0   0   0   0   0   0   0   0   0  17 100 98 73 72 65 63 61 60 59 55 54 52 49 46 42 39 32 
   4  10   0   0   0   0   0   0   2   0   0   0   1   0   0   0   0   0   2   0   0   7   0   0   1   0   0   6   0   0   9  15 101 100 73 67 66 65 60 57 54 51 50 49 47 39 32 
   7   0   0   0   0   0   8   0   0   0   0   0   0   0   4   0   0   0   0   0   0   0   0   0   0   0   0   0   0   0   0  12 97 93 88 72 71 65 64 61 54 42 39 38 
   9   0   0   0   0   0   0   0   0  10   0   1   0   0   0   0   0   0   0   0   0   7   0   0   0   0   6   0   0   0   0  12 101 97 96 93 92 65 58 52 49 47 39 31 
   1   0   0   0   0   0   0   0   0   0   0   0   0   0   5   0   0   0   0   0   0   0   0   5   0   0   0   5   0   0   0  21 99 98 97 96 90 72 71 69 68 66 65 64 61 58 57 54 53 52 51 47 45 
   1   0   0   0   0   0   0   7   0   0   0   0   0   9   0   0   0   0   0   0   0   0   0   0   7   0   0   0   6   0   0  17 101 100 97 96 95 93 92 89 88 84 83 71 67 62 58 52 39 
   5   4   0   6   0   0   0   0   0   0   0   0   0   0   0   0   0   0   0   0   0   0   0   0   0   0   0   0   0   0   0  17 98 96 95 94 92 89 70 69 68 65 63 61 57 53 52 50 47 
   8   9   0   0   0   0   0   0   0   0   7   7   0   0   0   0   3   0   0   0   0   0   0   0   0   0   0   0   4   0   0  16 100 96 95 93 92 90 79 70 69 68 62 59 54 52 51 41 
   8   0   0   0   0   0   0   0   0   6   0   0   0   7   0   0   0   0   4   0   5   0   0   0   0   2   0   0   0   0   0   9 99 93 64 54 52 50 49 41 40 
   9   0   0   0   0   0   0   0   0   0   0   0   0   6   0   0   9   0   0   0   0   0   0   0   0   0   0   0   7   0   0  13 98 95 93 87 79 70 68 65 62 52 50 49 41 
   5   0   0   0   0   0   0   0   0   0   0   0   0   0   0   1   0   0   0   0   5   0   0   0   0   0   0   0   0   0   4  18 99 98 94 92 89 88 87 85 76 73 68 65 64 63 62 60 58 50 
   1   0   0   0   0   0  10   0   0   0   0   8   0   0   0   0   0   0   0   0   0   0   0   0   0   0   0   0   0   0   0  15 99 95 94 86 85 84 70 68 65 64 58 57 53 51 49 
   3   0   0   0   0   0   0   0   0   0   0   0   0   7   0   6   0   0   0   0   0   0   0   0   0   0   0   0   0   0   0  12 95 94 90 88 70 69 68 61 60 57 52 41 
   2   0   0   7   0   0   0   0   0   0   0   0   0   0   0   0   0   0   0   0   0   0   0   0   0   0   0   0   3   0   0  11 101 96 85 84 83 71 58 57 53 49 39 
   8  10   0   0   0   0   0   5   0   0   0   0   0   0   0   0   0   0   0   0   0   0   0   0   0   0   0   0   5   0   0  18 98 96 93 92 91 90 89 86 84 83 81 70 62 60 59 57 52 51 
   8   0   0   0   0   4   0   0   6   0   0   0   6   0   0   6   5   0   8   0   0   0   0   0   0   0   0   0   0   0   6  11 95 92 89 88 85 83 60 58 54 53 39 
   3   0   0   0   0   0   0   8   0   0   0   0   0   0   0   0   0   0   0   1   0   0   0   0   6   0   0   5   0   7   0   8 95 85 71 64 58 49 48 39 
  10   0   0   0   0   0   0   6   0  10   0   0   0   0   0   0   0   0   0   0   0   0   0   0   7   0   0   0   0   0   0  18 101 98 96 93 92 90 89 88 86 83 82 81 77 72 64 57 55 52 
   5   8   0   0   0   0   0   0   0   0   0   0   0   0   0   0   0   0   0   0   0   0   0   0   0   0   4   0  10   0   4  17 100 95 94 93 92 91 90 88 87 86 84 81 70 69 65 60 52 
   1   9   0   0   0   0   0   0   0   0   0   0   0   0   0   0   0   0   0   0   0   0   0   0   0   0   0   0   0   0   0  10 100 99 95 92 85 71 70 65 59 40 
   7   0   0   4   0   0   0   0   0   0   0   0   0   0   0   0   0   0   0   0   0   0   0   0   0   0   0   8   0   0   0  16 95 92 91 90 89 86 85 82 79 73 71 70 68 65 61 54 
   2   0   0   0   0   5   0   0   0   0   0   7   0   0   0   0  10   1   0   0   0   0   0   0   0   0   0   0   0   0   0  15 100 99 94 92 90 89 88 85 76 72 71 69 63 58 57 
   3   0   0   8   0   0   0   0   0   0   0   0   0   0   0   0   0   0   0   0   0   0   0   0   0   0   0   0   0   4   0  11 90 88 85 84 76 71 70 68 64 59 42 
   9   0   0   0   0   0   0   0   0   0   9   4   0   0   0   0   0   0   0   8   0   0   0   0   0   7   0   0   0   0   0  15 95 94 93 92 90 89 88 86 85 78 71 69 64 58 53 
   8   0   9   0   0   0   0   0  10   0   0   0   5   0   6   0   0   0   0   0   0   0   0   0   0   0   0   0   0   0   0  14 100 96 94 93 92 91 89 88 85 76 71 68 62 50 
   4   5   0   6   0   0   0   0   0   0   0   0   0   0   0   0   0   0   7   0   0   4   0   0   0   0   0   0   0   8   0  16 99 94 93 91 90 88 83 82 81 80 79 77 71 70 54 52 
   1   0   0   0   0   0   0   0   0   0   0   0   0  10   0   0   0   0   0   0   0   0   8   0   0   0   0   0   0   0   0  16 99 96 92 91 89 86 85 84 83 78 77 76 74 70 68 57 
   6   0   0   0   0   0   0   0   0   0   7   0   0   0   0   0   0   0   0   0   0   0   0   4   0   0   0   0   0   0   0  11 91 90 89 86 83 82 70 68 58 52 51 
   3   0   0   0   0   0   6   0   0   0   0   0   0   0   0   0   0   0   0   0  10   9   0   0   0   0   0   0   0   0   0  12 95 93 88 86 85 83 81 78 72 69 64 53 
   7   0   0   0   0   7   0   4   0   0   0   0   0   0   0   0   0   0   0   0   0   0   0   0   0   0   0   0   0   0   0   9 96 92 90 89 87 75 58 53 52 
   1   6  10   0   0   0   0   0   0   0   0   0   4   0   0   0   0   0   0   0   0   0   9   0   0   0   0   0   0  10   0  13 94 91 90 87 86 80 79 78 76 74 70 69 68 
   7   0   0   6   0   0   0   0   0   0   5   0   0   0   0   0   2   0   0   0   8   0   0   0   0   0   0   0   0   0   0  10 96 86 84 83 76 75 74 69 68 57 
   9   0   0   0   0   0   0   0   5   0   0   0   0   0   0   0   0   0   0   6   0   0   0   0   0   0   0   0   6   0   0  13 97 91 89 86 85 84 83 80 78 77 76 75 71 
   8   0   0   0   0   0   0   0   0   0   0   0   0   4   0   0   0   0   0   0   0   0   0   0   0   0   0   0   0   0   5  10 95 86 83 82 81 78 77 75 74 57 
   4   0   4   0   0   0   0   0   0   0   0   0   7   0   0   0   0   0   0   9   0   0   5   0   0   0   0   0   0   0   0   8 95 86 83 79 78 76 68 58 
   5   0   0   0   0   0   0   0   0   4   0   0   0   0   2   0   0   6   0   5   0   0   0   0   0   0   0   0   0   0   0   8 94 92 84 81 80 76 74 60 
  10   0   0   0   0   0   0   0   0   0   0   0   0   0   0   0   7   0   0   0   0   0   0   0   0   0   0   0   0   0   0  10 94 93 86 85 84 81 79 76 75 74 
   4   0   0   0   0   0   0   0   0   0   0   0   9   0   0   0   4   0   0   5   0   0   3   0   0   0   0   0   0   0   0  10 95 88 84 82 80 79 78 77 75 74 
   8   0   0   8   0   0   0   0   0   0   0   0   0   0   0   0   0   0   0   0   0   0   0   0   4   0   0   0   0   0   0   9 91 87 86 84 83 79 76 75 74 
   5   0   0   0   0   0   0   0   0   0   0   0   0   0   0   0   0   0   0   0   0   0   0   5   0   0   0   0   0   0   0   8 89 87 84 83 81 79 75 74 
   2   5   0   8   0   0   0   0   6   0   0   0   0   0   0   0   0   0   0   0   0   0   0   0   0   5   0   0   0   0   0   7 90 89 88 78 77 76 69 
   8   0   5   0   0   7   0   0   8   0   0   5   0   0   0   0   8   0   0   6   0   0   0   6   4   0   0   0   0   3   0   5 84 83 78 75 59 
   2   3   0   0   1   0   0   7   0   0   0   7   0   0   0   0   4   0   0   0   0   0   0   0   0   0   0   8   0   0   9   6 88 87 78 77 75 74 
   2   0   0   0   0   0   0   0   0   0   0   0   8   0   0   0   0   0   0   0   0   0   7   0   7   0   0   0   6   0   0   4 85 78 76 74 
   5   4   0   0   0   0   0   0   0   0   5   0   0   0   0   9   0   0  10   0   0   0   0   0   0   0   0   0   0   0   0   4 79 77 76 74 
   1   0   0   0   0   0   4   0   0   0   0   0   0   0   7   3   4   0   0   0   0   8   5   0   0   5   0   0   0   0   0   4 84 78 75 74 
   9   0   7   0   0   8   0   0   0   5   7   0   0   0   0   0   0   0   0   0   7   0   0   0   0   0   0   0   6   0   0   4 84 78 76 74 
   6   0   0   0   0   0   0   0   0   0   0   0   0   0   0   0   0   5   0   0   0   0   0   0   7   0   0   0   0   0   0   4 92 85 77 76 
   8   0   0   0   0   0   0   0   0   0   0   0   0   0   0   0   0   0   0   0   0   0   0   0   0   0   0   0   0   0   3   3 87 80 79 
  10   0   6   0   0   0   0   0   0   0   0   0   0   0   0   0   0   0   0   0   0   5   0   0   0   0   7   4   0   0   0   3 81 80 77 
   6   4   4   0   0   0   0   0   5   0   7   0   0   0   0   0   0   0   0   0   0   0   0   0   0   0   0   0   0   0   0   3 82 77 74 
   5   0   0   0   0   0   8   0   0   0   0   0   4   7   0   0   0   0   0   0   0   0   0   4   0   0   0   4   0   0   0   3 79 77 75 
   7   0   0   0   0   0   0   8   0   6   0   0   0   0   0   0   0   0   0   0   6   0   0   0   0   0   0   0   0   0   0   3 78 76 74 
   6   0   0   0   0   0   0   0   0   0   0   0   0   0   0   0   0   0   0   0   0   0   0   0   0   0   0   0   0   0   6   3 78 77 75 
   7   0   0   0   5   0   0   0   0   5   0   0   0   0   0   0   0   0   0   0   0   0   0   0   0   0   0   0   0   0   0   3 93 79 78 
   5   5   0   0   0   0   0   0   0   0   0   0   0   0   6   0   5   0   7   0   4  10   0   0   0   0   0   0   0   0   0   2 80 75 
  10   0   0   6   0   0   0   0   0   7   0   0   0   0   0   8   0   0   0   0   0   0   7   4   0   0   0   0   9   0   0   2 83 80 
   4   7   8   0   8   0   0   0   0   0   0   0   6   0  10   9   5   0   0   0   0   0   0   7   0   0   5   8   0   0  10   2 76 75 
   1   0   0   0   0   0   0   8   4   0   0   0   0   0   0   8   0   0   0   0   0   0   0   0   0   0   0   4   0   0   8   2 76 74 
   3   0   0   0   0   0   0   0   0   0   0   0   0   0   0   0   0   0   0   7   0   0   0   0   0   0   0   0   4   0   0   1 81 
   7   0   0   0   0   0   0   0   5   0   0   0   8   0   0   0   0   0   0   7   0   0   0   7   0   0   0   0   0   7   6   1 82 
   9   0   0   0   0   0   0   0   0   0   0   0   0   0   0   0   0   0   0   0   0   5   0   0   0   0   0   0   0   0   0   1 75 
   6   0   0   0   0   0   0   0   0   5   0   0   7   0   0   0   0   0   0   0   0   0   0   0   0   0   0   0   0   0   0   1 74 
   3   0   0   6   0   0   0   8   0   0   8   0   0   0   0   0   0   0   0   0   0   0   0   0   7   0   0   0   0   0   0   1 75 
   5   0   0   3   0   0   0   0   0   0   8   0   0   0   8   0   0   0   0   0   0   0   0   0   6   0   0   0   0   0   7   1 77 
   3   4   0   0   0   0   0   5   0   0   0   0   0   0   0   0   0   7   0   0   0   0   0   4   5   0   0   0   0   0   0   1 102
   3   6   0   0   0   0   0   9   7   0   0   0   0   0   0   0   9   0   0   8   0   0   0   0   0   0   0   0   0   0   0   1 102
   2   6   5   0   0   4   0   0   0   0   0   0   0   0   0   0   0   0   0   0   0   0   0   0   0   5   0   0   0   0   0   1 102
   7   0   0   0   0   0   0   4   0   6   0   0   0   0   7   0   0   0   0   0   0   5   0   0   0   0   0   0   0   0   5   1 102
   1   0   0   0   0   0   0   0   0   0   8   0   6   2   0   0   0   0   0   7   0   0   0   0   0   0   0   5   0   0   6   1 102
  10   0   0   0   0  10   0   0   0   0   0   0   0   0   3   0   6   0   0   0   8   0   0   0   0   0   0   0   0   5   0   1 102
   8   6   0   0   0   4   0   0   0   0   0   0   0   0   0   0   0   0   0   0   0   0   0   0   0   0   0   6   0   0   0   1 102
   6   0   0   0   0   7   0   4   7   0   0   0   0   9   0   0   0   0   0   0   0   0   7  10   0   0   0   0   0   0   0   1 102
   2   0   5   0   0  10   0   6   0   0   0   0   0   0   0   0   3   0   0   0   0   0   0   0   0   0   0   0   0   0   0   1 102
   5   6   0   0   0   7   0   0   0   0   3   0   0   0   0   0   9   0   0   8   0   0   0   0   0   0   0   0   0   0   0   1 102
  10   0   8   0   0   4   0   0   0   0   0   0   0   4   0   0   6   0   0   0   0   0   0   0   0   0   9   0   0   0   0   1 102
   7   0   0   0   0   0   0   0   0   0   0   0   0   0   7   0   0   0   0   0   0   0   5   7   0   0   0   0   0   0   3   1 102
   2   0   0   0   0   0   0   0   0   0   4   0   7   0   0   0   0   0   0   0   0   0   0   0   8   0   5   0   5   0   0   1 102
   9   0   0   3   0   0   0   0   0   0   0   8   0   0   0   5   0   0   0   5   0   0   0   0   0   0   0  10   0   0   0   1 102
   5   0   0   6   0   0   0   0   0   0   0   0   0   0   0   0   0   7   0   0   0   0   0   0   0  10   0   0   0   9   0   1 102
   3   0   0   0   9   0   0   0   0   0   0   0   0   0   9   5   0   0   0   0   0   4   0   6   7   0   0   0   0   0   0   1 102
   1   0   0   6   0   0   0   0   0   0   0   0   0   0   0   0   0   8   0   0   0   0   0   0   0   0   0   0   0   0   7   1 102
   6   0   0   0   0   0   0   6   6   0   0   0   0   0   0   7   0   4   0   0   0   0   0   0   0   0   0   0   0   0   0   1 102
   3   0   0   0   0   0   0   0   0   0   0   0   0   0   0   5   0   8   0   0   0   0   0   0   0   0   0   0  10   0   9   1 102
   6   0   0   0   0   0   0   0   0   0   0   0   0   0   0   0  10   0   0   5   0   7   0   0   0   0   8   0   0   0   0   1 102
   7   0   0   0   0   0   0   0   0   7   0   0   0   0   0   6   0   0   4   0   0   0   0   0   0   0   0   0   8   0   0   1 102
   7   0   0   0   0   0   0   0   8   0   0   7   0   0   0   0   5   0   0   0   0   0   0   0   0   0   7   0   0   0   0   1 102
   9   0   0   6   0   0   0   0   0   0   0   0   0   0   5   0   0   8   0   0   0   0   0   0   0   8   0   0   0   0   0   1 102
   9   0   0   0   0   0   0   0   0   0   5   0   0   0   7   0   0   0   0   3   0   0   0   0   8   0   0   0   4   0   0   1 102
   3   0   0   0   0   0   0   0   0   6   0   0   0   0   0   6   0   0   0   0   5   0   0   0   0   0   0   0   0   0   0   1 102
   4   8   0  10   7   0   6   0   0   0   0   0   0   0   8   0   0   0   0   0   0   0   9   0   0   0   0  10   0   0   0   1 102
   4   0   0   0   0   0   0   0   0   0   5   6   0   0   0   0   0   0   0   0   0   0   0   0   0   0   0   0   0   0   0   1 102
  10   0   6   0   0   0   0   0   5   0   0   0   0   6   0   0   0   0   6   0   0   0   0   9   0   0   8   0   0   0   0   1 102
   0   0   0   0   0   0   0   0   0   0   0   0   0   0   0   0   0   0   0   0   0   0   0   0   0   0   0   0   0   0   0   0 
